p wcnf 140 1200
6 -134 -138 0
7 -133 -139 0
3 -129 -134 0
3 -126 -135 0
6 -126 140 0
7 -123 -125 0
8 -123 137 0
8 -121 -125 0
9 -121 124 0
9 -121 133 0
7 -119 -126 0
7 -119 133 0
8 -118 -126 0
4 -118 126 0
9 -117 -122 0
9 -117 124 0
9 -116 -128 0
9 -115 -134 0
6 -115 -124 0
5 -115 122 0
8 -114 -127 0
2 -114 115 0
2 -113 -120 0
3 -113 121 0
10 -113 129 0
7 -112 -124 0
1 -112 127 0
2 -111 -124 0
2 -109 -132 0
6 -109 -118 0
9 -109 -112 0
7 -109 -111 0
3 -107 -127 0
2 -107 -118 0
9 -107 120 0
8 -107 138 0
8 -107 139 0
7 -106 132 0
6 -104 -130 0
6 -104 -113 0
5 -104 105 0
3 -104 122 0
3 -102 -124 0
3 -102 110 0
6 -102 115 0
2 -102 130 0
2 -101 -133 0
5 -100 -110 0
2 -100 -102 0
7 -99 126 0
10 -98 101 0
8 -98 107 0
8 -98 110 0
2 -98 111 0
1 -98 112 0
7 -98 118 0
8 -98 133 0
1 -97 -114 0
8 -96 112 0
8 -96 113 0
6 -96 123 0
7 -95 -127 0
5 -95 132 0
8 -93 112 0
8 -92 -106 0
4 -91 96 0
6 -91 117 0
6 -91 137 0
10 -90 117 0
2 -90 118 0
2 -89 -137 0
5 -89 -118 0
5 -89 95 0
4 -89 129 0
7 -88 -132 0
10 -88 -116 0
6 -88 105 0
8 -87 -125 0
5 -87 -110 0
6 -86 -136 0
5 -86 -113 0
5 -86 116 0
4 -86 120 0
3 -86 137 0
6 -85 -92 0
4 -85 100 0
9 -84 -94 0
3 -84 102 0
5 -84 122 0
8 -83 -114 0
2 -82 -108 0
9 -82 97 0
5 -81 -106 0
6 -81 112 0
7 -79 -111 0
3 -79 -105 0
9 -79 -101 0
3 -79 -80 0
7 -79 84 0
9 -79 106 0
5 -78 -135 0
8 -78 -119 0
4 -78 -101 0
8 -78 114 0
3 -78 116 0
2 -77 -123 0
8 -77 114 0
7 -77 115 0
9 -76 -115 0
3 -76 83 0
4 -76 123 0
4 -76 131 0
7 -76 139 0
7 -75 -92 0
6 -75 96 0
3 -75 99 0
2 -75 121 0
6 -74 -121 0
6 -74 -86 0
5 -74 91 0
3 -74 112 0
6 -74 114 0
5 -74 126 0
7 -73 76 0
3 -73 86 0
2 -72 -136 0
9 -72 76 0
2 -72 85 0
4 -72 91 0
6 -72 111 0
10 -72 116 0
8 -72 138 0
4 -71 73 0
4 -71 91 0
6 -71 97 0
6 -71 120 0
5 -70 -94 0
4 -70 -83 0
3 -70 131 0
5 -69 -133 0
7 -69 -119 0
6 -69 119 0
8 -69 128 0
4 -69 135 0
3 -68 -130 0
4 -68 -128 0
6 -68 -105 0
4 -68 78 0
9 -68 100 0
2 -67 -128 0
8 -67 -105 0
2 -67 129 0
7 -66 -121 0
3 -66 73 0
9 -66 123 0
9 -66 131 0
3 -66 132 0
7 -65 -138 0
10 -65 -98 0
6 -65 100 0
3 -65 113 0
10 -65 137 0
4 -64 -107 0
6 -64 -86 0
4 -64 -68 0
9 -64 -67 0
2 -64 79 0
8 -64 128 0
4 -64 131 0
4 -63 -87 0
3 -63 74 0
9 -63 81 0
8 -63 97 0
10 -63 102 0
3 -63 124 0
1 -63 130 0
4 -62 -120 0
8 -62 -100 0
4 -62 78 0
3 -62 113 0
9 -62 132 0
2 -61 -126 0
4 -61 -113 0
7 -61 75 0
4 -61 84 0
3 -61 92 0
5 -61 108 0
6 -61 112 0
9 -61 117 0
5 -60 -90 0
2 -60 65 0
3 -60 130 0
5 -60 136 0
6 -59 -125 0
8 -59 -115 0
8 -59 -95 0
5 -59 -73 0
8 -59 -67 0
6 -59 -64 0
8 -59 -60 0
2 -59 73 0
8 -59 76 0
7 -59 104 0
9 -59 117 0
8 -59 123 0
9 -58 -133 0
10 -58 -128 0
2 -58 -124 0
7 -58 -123 0
4 -58 -116 0
4 -58 -86 0
7 -58 -67 0
5 -57 -85 0
7 -57 -60 0
3 -57 64 0
7 -57 75 0
9 -57 78 0
8 -57 92 0
3 -57 100 0
9 -56 -123 0
3 -56 -121 0
5 -56 -87 0
1 -56 83 0
7 -56 90 0
9 -55 -133 0
8 -55 -114 0
5 -55 -61 0
4 -55 71 0
7 -54 72 0
1 -54 81 0
2 -54 87 0
8 -54 140 0
8 -53 -94 0
8 -53 -81 0
7 -53 83 0
6 -53 92 0
7 -52 -121 0
7 -51 -102 0
7 -51 -86 0
4 -51 -79 0
10 -51 72 0
1 -51 102 0
1 -50 -113 0
5 -50 -105 0
8 -50 -83 0
3 -50 68 0
2 -50 122 0
7 -50 126 0
1 -50 134 0
4 -49 -62 0
6 -49 95 0
3 -49 106 0
8 -49 112 0
6 -48 -99 0
9 -48 -87 0
7 -48 60 0
4 -48 71 0
4 -48 98 0
1 -48 121 0
1 -48 130 0
4 -47 -111 0
2 -47 -72 0
8 -47 -71 0
2 -47 -66 0
9 -47 -62 0
5 -47 -53 0
8 -47 82 0
6 -47 125 0
2 -46 -128 0
5 -46 -91 0
9 -46 -87 0
2 -46 -61 0
5 -46 -54 0
9 -46 68 0
5 -45 -116 0
3 -45 -65 0
3 -45 65 0
6 -45 75 0
9 -45 131 0
3 -44 -102 0
10 -44 -46 0
5 -44 54 0
5 -44 100 0
8 -44 104 0
1 -44 124 0
4 -43 -140 0
5 -43 -136 0
5 -43 -101 0
7 -43 -69 0
5 -43 -47 0
5 -43 81 0
10 -43 95 0
6 -43 116 0
2 -43 120 0
2 -43 123 0
6 -42 -133 0
6 -42 -48 0
9 -42 78 0
1 -42 86 0
7 -42 97 0
4 -42 130 0
9 -41 -129 0
8 -41 -81 0
8 -41 -49 0
9 -41 82 0
3 -41 85 0
1 -41 111 0
1 -40 -105 0
8 -40 -95 0
10 -40 42 0
3 -40 46 0
8 -40 51 0
5 -40 71 0
7 -40 107 0
5 -40 110 0
5 -40 112 0
9 -40 115 0
9 -40 131 0
8 -40 133 0
6 -40 137 0
4 -39 -129 0
3 -39 -123 0
6 -39 -85 0
10 -39 -78 0
4 -39 -71 0
7 -39 129 0
5 -39 134 0
10 -39 140 0
6 -38 -133 0
6 -38 -127 0
7 -38 -126 0
9 -38 -109 0
5 -38 -91 0
4 -37 -133 0
8 -37 -131 0
4 -37 -87 0
6 -37 95 0
8 -36 -138 0
4 -36 -115 0
4 -36 -109 0
7 -36 -102 0
6 -36 -98 0
2 -36 -89 0
2 -36 -42 0
2 -36 43 0
7 -36 126 0
6 -35 -124 0
1 -35 -120 0
6 -35 -110 0
4 -35 -103 0
6 -35 115 0
9 -34 -137 0
6 -34 -134 0
2 -34 -78 0
9 -34 57 0
10 -34 81 0
8 -34 109 0
4 -34 127 0
9 -33 -93 0
4 -33 -80 0
9 -33 104 0
6 -33 115 0
4 -33 132 0
4 -32 -112 0
9 -32 -84 0
1 -32 -79 0
7 -32 33 0
6 -32 85 0
8 -31 -131 0
9 -31 -126 0
9 -31 -85 0
6 -31 -82 0
5 -31 42 0
1 -31 65 0
7 -31 78 0
6 -31 138 0
7 -30 -75 0
2 -30 45 0
6 -30 119 0
3 -30 122 0
5 -29 -36 0
3 -29 48 0
2 -28 -128 0
1 -28 -126 0
4 -28 -70 0
10 -28 -32 0
10 -28 55 0
2 -28 127 0
4 -28 135 0
9 -27 -128 0
5 -27 -110 0
3 -27 -105 0
5 -27 -85 0
8 -27 -78 0
6 -27 76 0
5 -27 123 0
8 -26 -131 0
2 -26 -95 0
9 -26 -35 0
6 -26 27 0
2 -25 -124 0
9 -25 -113 0
2 -25 36 0
6 -25 62 0
9 -25 69 0
7 -25 74 0
1 -25 95 0
6 -24 -125 0
8 -24 -113 0
7 -24 -64 0
8 -24 -41 0
4 -24 100 0
8 -24 102 0
9 -24 106 0
4 -24 120 0
2 -23 -102 0
9 -23 -90 0
4 -23 27 0
3 -23 96 0
3 -22 -118 0
3 -22 -60 0
8 -22 -36 0
5 -22 -23 0
7 -22 28 0
6 -22 37 0
10 -22 125 0
2 -22 135 0
4 -21 -118 0
2 -21 -84 0
1 -21 -33 0
9 -21 64 0
3 -21 72 0
9 -21 105 0
10 -21 116 0
7 -21 121 0
8 -20 -103 0
7 -20 -78 0
8 -20 -69 0
4 -20 -60 0
6 -20 -49 0
4 -20 35 0
2 -20 49 0
9 -20 85 0
3 -20 86 0
1 -19 -77 0
3 -19 -56 0
4 -19 108 0
9 -19 130 0
6 -18 -133 0
6 -18 -126 0
2 -18 -121 0
8 -18 -90 0
4 -18 -84 0
6 -18 -83 0
5 -18 -79 0
9 -18 -60 0
6 -18 28 0
6 -18 45 0
3 -18 56 0
7 -18 126 0
7 -18 130 0
2 -17 -127 0
9 -17 -106 0
6 -17 -86 0
2 -17 23 0
6 -17 28 0
4 -17 32 0
8 -17 37 0
4 -17 62 0
7 -17 81 0
4 -17 113 0
7 -16 -114 0
8 -16 -93 0
2 -16 -91 0
9 -16 -82 0
8 -16 -20 0
4 -16 23 0
3 -16 31 0
7 -16 51 0
9 -16 53 0
8 -16 87 0
9 -16 92 0
7 -16 113 0
2 -16 114 0
5 -16 121 0
2 -16 138 0
10 -15 -100 0
10 -15 -82 0
8 -15 -16 0
2 -15 23 0
6 -15 39 0
4 -15 66 0
3 -15 72 0
5 -15 81 0
9 -15 89 0
4 -15 93 0
10 -15 124 0
3 -14 28 0
2 -14 113 0
3 -13 -135 0
8 -13 22 0
5 -13 37 0
9 -12 -106 0
6 -12 -94 0
6 -12 -28 0
8 -12 -18 0
4 -12 129 0
9 -11 -136 0
10 -11 -131 0
1 -11 -122 0
8 -11 -37 0
8 -11 -30 0
9 -10 -39 0
4 -10 26 0
9 -10 39 0
4 -10 60 0
5 -10 84 0
8 -10 132 0
3 -9 -80 0
3 -9 53 0
10 -9 58 0
9 -9 136 0
7 -8 -138 0
3 -8 -126 0
4 -8 -96 0
6 -8 -13 0
5 -8 -11 0
3 -8 36 0
7 -8 71 0
6 -7 -137 0
6 -7 -134 0
5 -7 -101 0
10 -7 -68 0
5 -7 -51 0
1 -7 -43 0
5 -7 36 0
3 -7 45 0
4 -7 50 0
4 -7 53 0
3 -7 63 0
5 -7 80 0
2 -7 96 0
1 -7 112 0
4 -6 -132 0
5 -6 -123 0
9 -6 -116 0
6 -6 -104 0
9 -6 -66 0
7 -6 -25 0
8 -6 -18 0
2 -6 26 0
7 -6 39 0
7 -6 47 0
8 -6 77 0
8 -5 -75 0
10 -5 -56 0
4 -5 -33 0
4 -5 -9 0
3 -5 137 0
10 -4 -131 0
9 -4 -98 0
8 -4 -91 0
5 -4 -30 0
8 -4 -26 0
2 -4 6 0
6 -4 91 0
4 -4 98 0
5 -4 106 0
9 -4 137 0
7 -4 138 0
7 -3 -94 0
4 -3 -76 0
8 -3 -72 0
7 -3 -8 0
7 -3 43 0
2 -3 48 0
6 -3 68 0
3 -3 69 0
2 -3 96 0
3 -2 -133 0
1 -2 -120 0
3 -2 -82 0
9 -2 66 0
7 -2 68 0
1 -2 78 0
7 -2 108 0
7 -2 134 0
4 -2 135 0
1 -1 -83 0
9 -1 -69 0
4 -1 -68 0
9 -1 -10 0
7 -1 -7 0
8 -1 13 0
7 -1 56 0
8 -1 102 0
4 -1 104 0
1 -1 119 0
2 1 -118 0
3 1 -113 0
7 1 -102 0
8 1 -87 0
6 1 -80 0
4 1 -55 0
5 1 24 0
2 1 114 0
6 1 119 0
9 1 120 0
4 2 -138 0
7 2 -127 0
2 2 -114 0
4 2 -96 0
9 2 -72 0
1 2 -30 0
2 2 -8 0
9 2 -5 0
8 2 28 0
8 2 42 0
3 2 57 0
8 2 68 0
7 2 77 0
6 2 93 0
7 2 131 0
3 3 -75 0
4 3 -60 0
4 3 -56 0
1 3 -10 0
6 3 26 0
4 3 61 0
3 3 90 0
8 3 101 0
10 3 105 0
10 3 109 0
4 3 112 0
4 3 130 0
4 4 -129 0
5 4 -77 0
9 4 65 0
4 4 89 0
8 4 98 0
6 4 104 0
5 4 112 0
3 5 -104 0
5 5 -83 0
5 5 -66 0
3 5 18 0
5 5 47 0
3 5 49 0
1 5 85 0
7 5 93 0
10 5 104 0
7 6 -101 0
3 6 -89 0
6 6 -84 0
9 6 -57 0
5 6 -51 0
9 6 20 0
9 6 21 0
1 6 73 0
3 6 95 0
1 6 115 0
9 6 133 0
3 7 -57 0
1 7 -54 0
2 7 -13 0
7 7 8 0
4 7 72 0
7 7 89 0
6 7 96 0
7 7 132 0
5 7 139 0
2 8 -78 0
2 8 -35 0
7 8 -9 0
6 8 10 0
6 8 89 0
9 8 104 0
10 9 -97 0
8 9 -72 0
9 9 -46 0
7 9 29 0
8 9 36 0
6 10 -45 0
8 10 27 0
4 10 45 0
5 10 82 0
4 10 130 0
3 11 59 0
4 11 65 0
4 11 136 0
6 12 -127 0
4 12 -111 0
3 12 -87 0
8 12 -53 0
4 12 -17 0
4 12 88 0
5 12 97 0
7 13 -135 0
10 13 -115 0
10 13 -113 0
5 13 -56 0
5 13 -54 0
2 13 36 0
6 13 75 0
2 13 89 0
7 13 104 0
2 13 105 0
10 13 123 0
7 14 -100 0
9 14 -62 0
9 14 -35 0
4 14 52 0
7 14 58 0
5 14 90 0
2 15 -127 0
10 15 -89 0
9 15 62 0
5 16 -109 0
3 16 -107 0
3 16 -83 0
8 16 -79 0
8 16 -58 0
6 16 137 0
9 17 -99 0
6 17 -38 0
9 17 -27 0
3 17 71 0
10 17 137 0
6 18 -89 0
3 18 -82 0
10 18 75 0
10 18 82 0
7 18 135 0
1 19 -111 0
5 19 -107 0
8 19 -47 0
8 19 25 0
6 19 29 0
8 19 44 0
5 19 88 0
5 19 118 0
7 20 -134 0
8 20 -105 0
2 20 -102 0
2 20 -101 0
9 20 -97 0
1 20 -66 0
1 20 -51 0
4 20 -37 0
4 20 97 0
3 21 -131 0
2 21 -109 0
2 21 -93 0
8 21 -89 0
10 21 -84 0
7 21 -38 0
6 21 -24 0
3 21 30 0
6 21 44 0
2 21 50 0
5 21 89 0
6 22 -62 0
2 22 -36 0
3 22 -26 0
6 22 61 0
6 22 82 0
9 22 91 0
4 22 124 0
2 23 -114 0
7 23 -92 0
8 23 -42 0
6 23 -41 0
4 23 -24 0
6 23 27 0
7 23 38 0
6 23 63 0
5 23 80 0
7 23 138 0
6 24 -89 0
7 24 -81 0
10 24 -68 0
8 24 -49 0
8 24 33 0
2 25 -105 0
6 25 -88 0
8 25 -86 0
7 25 50 0
2 25 54 0
1 25 81 0
3 25 98 0
4 25 109 0
5 25 133 0
8 25 137 0
5 26 -116 0
7 26 33 0
5 27 -116 0
1 27 -94 0
6 27 -77 0
8 27 -50 0
2 28 -139 0
4 28 -73 0
5 28 -72 0
8 28 -29 0
7 28 32 0
10 28 59 0
5 28 98 0
2 29 -120 0
4 29 -111 0
2 29 -105 0
7 29 -81 0
2 29 -56 0
2 29 -49 0
5 29 44 0
9 29 96 0
2 29 136 0
1 30 -128 0
6 30 -121 0
9 30 -87 0
3 30 -48 0
6 30 46 0
2 30 95 0
5 30 99 0
2 30 120 0
9 31 -100 0
9 31 -96 0
8 31 93 0
4 31 125 0
9 32 -122 0
4 32 -85 0
1 32 -65 0
2 32 -44 0
7 32 91 0
6 32 103 0
8 32 131 0
4 32 132 0
5 33 -132 0
3 33 -53 0
5 33 -49 0
9 33 -41 0
4 33 79 0
2 33 81 0
10 33 94 0
5 34 -128 0
6 34 -106 0
8 34 -99 0
6 34 -79 0
7 34 -39 0
5 34 39 0
5 34 50 0
8 35 -113 0
1 35 112 0
6 35 113 0
4 35 122 0
2 36 -140 0
5 36 -91 0
3 36 104 0
9 37 -51 0
8 37 -45 0
2 37 46 0
3 37 77 0
8 37 92 0
3 38 -134 0
9 38 -70 0
4 38 -52 0
1 38 61 0
3 38 85 0
8 38 89 0
3 38 112 0
6 38 113 0
7 39 -89 0
6 39 -88 0
7 39 -84 0
7 39 -56 0
10 39 46 0
4 39 49 0
5 39 57 0
6 39 64 0
9 39 94 0
9 40 -134 0
10 40 96 0
7 40 98 0
9 40 126 0
6 40 134 0
10 41 -131 0
1 41 -123 0
10 41 -98 0
3 41 -59 0
9 41 98 0
8 41 117 0
4 41 119 0
2 41 132 0
6 42 -139 0
6 42 -45 0
1 42 90 0
9 42 100 0
7 42 134 0
3 42 139 0
7 43 -131 0
9 43 -91 0
9 43 -65 0
4 43 93 0
5 44 -117 0
6 44 -105 0
1 44 -90 0
5 44 -82 0
8 44 -64 0
5 44 -63 0
1 44 62 0
8 44 65 0
4 44 108 0
1 45 -134 0
5 45 -106 0
3 45 -98 0
6 45 58 0
5 45 61 0
3 45 66 0
6 45 79 0
7 45 114 0
2 45 131 0
4 45 135 0
1 46 -107 0
4 46 -95 0
8 46 65 0
6 47 -66 0
4 48 -101 0
7 48 -88 0
3 48 -82 0
6 48 -71 0
4 48 -63 0
2 48 -52 0
5 48 69 0
7 48 94 0
7 48 139 0
10 49 -117 0
7 49 -112 0
2 49 -107 0
8 50 -117 0
2 50 73 0
2 50 85 0
6 51 -132 0
6 51 -64 0
3 51 61 0
10 51 68 0
8 52 -86 0
8 52 76 0
5 52 89 0
1 52 108 0
4 52 110 0
1 52 126 0
3 52 128 0
6 53 -113 0
2 53 100 0
5 53 128 0
5 54 -140 0
7 54 -133 0
8 54 -90 0
2 54 -84 0
9 55 -62 0
4 55 100 0
5 55 105 0
2 56 -137 0
8 56 -136 0
2 56 -83 0
8 57 -118 0
8 57 -106 0
8 57 -101 0
8 57 -63 0
6 57 -61 0
10 57 79 0
10 58 -137 0
2 58 -111 0
6 58 -89 0
3 58 -87 0
1 58 -86 0
4 58 -77 0
9 58 -62 0
5 58 -59 0
4 58 63 0
3 58 116 0
5 59 -140 0
6 59 -100 0
9 59 -96 0
6 59 -92 0
1 59 75 0
3 59 109 0
3 59 112 0
8 59 116 0
4 59 126 0
2 60 -114 0
3 60 -103 0
8 60 -89 0
3 60 -85 0
10 60 112 0
10 61 -131 0
10 61 -127 0
8 61 -76 0
8 61 -66 0
8 61 90 0
3 61 97 0
8 61 100 0
8 61 116 0
4 62 -116 0
4 62 -114 0
10 62 103 0
4 62 107 0
6 63 -132 0
9 63 -127 0
8 63 -115 0
9 63 -99 0
2 63 99 0
4 63 108 0
5 63 109 0
10 63 125 0
8 64 81 0
5 64 91 0
3 64 98 0
2 64 103 0
3 65 -97 0
7 65 -74 0
3 65 85 0
5 65 118 0
5 65 133 0
5 66 -130 0
5 66 -124 0
4 66 -110 0
5 66 -101 0
3 66 -73 0
2 66 70 0
3 66 139 0
5 67 -90 0
9 67 -89 0
1 67 -87 0
8 67 -83 0
3 67 71 0
10 67 101 0
2 67 116 0
8 67 117 0
9 67 128 0
10 67 135 0
7 67 139 0
10 68 -93 0
3 68 69 0
2 68 71 0
10 68 90 0
2 68 123 0
6 68 135 0
3 69 108 0
2 69 133 0
9 70 -134 0
8 70 -112 0
4 70 -111 0
4 70 -109 0
3 70 -88 0
8 70 -84 0
8 70 76 0
7 70 89 0
3 70 92 0
9 70 107 0
8 70 115 0
5 70 140 0
5 71 -127 0
7 71 115 0
5 72 -126 0
3 72 115 0
9 73 132 0
5 73 138 0
4 73 140 0
7 74 -132 0
4 74 -120 0
4 74 -92 0
5 74 -90 0
3 74 106 0
6 74 111 0
6 75 -138 0
3 75 86 0
7 76 -91 0
2 76 92 0
5 76 100 0
8 77 -81 0
1 77 104 0
3 78 109 0
2 79 -89 0
4 79 88 0
5 79 99 0
9 79 109 0
2 80 -120 0
2 80 -115 0
2 80 -88 0
1 80 95 0
9 81 -97 0
6 81 -85 0
5 81 86 0
6 81 114 0
10 81 123 0
7 81 130 0
5 81 131 0
5 82 -109 0
10 82 -85 0
3 82 103 0
8 83 -139 0
4 83 -109 0
7 83 -105 0
10 83 -95 0
9 83 -84 0
3 83 87 0
3 83 103 0
5 83 136 0
4 84 89 0
7 84 105 0
3 84 115 0
4 84 117 0
8 84 140 0
3 85 134 0
7 86 -131 0
4 86 -98 0
2 86 -91 0
7 86 92 0
4 86 98 0
3 87 -139 0
7 87 88 0
3 87 115 0
7 87 139 0
2 88 137 0
8 88 140 0
7 89 -118 0
8 89 -103 0
3 89 118 0
2 90 -104 0
8 90 111 0
5 91 102 0
9 92 -135 0
1 92 -134 0
2 92 129 0
9 93 -137 0
9 93 -124 0
3 94 -104 0
2 95 -140 0
4 95 -109 0
6 95 -105 0
7 95 102 0
6 95 125 0
9 96 -138 0
6 96 -132 0
9 96 99 0
6 96 107 0
8 96 128 0
10 96 134 0
4 97 -129 0
2 97 99 0
2 98 -122 0
1 98 -104 0
4 99 -136 0
9 99 -133 0
2 99 -120 0
2 99 132 0
6 100 -114 0
9 100 120 0
5 101 -124 0
7 101 107 0
7 101 120 0
9 102 -130 0
6 102 -125 0
7 103 -125 0
9 103 109 0
5 104 -133 0
7 104 106 0
3 104 135 0
5 104 138 0
10 105 -123 0
8 105 -119 0
3 105 -116 0
6 105 126 0
8 105 137 0
7 105 140 0
5 106 -128 0
4 106 -117 0
5 107 -131 0
4 107 -111 0
7 108 120 0
7 109 123 0
5 111 -137 0
7 111 117 0
10 112 127 0
4 113 136 0
8 114 -133 0
2 115 -139 0
9 115 137 0
7 116 -139 0
6 117 138 0
6 118 -135 0
4 118 -129 0
4 118 120 0
2 120 -131 0
2 121 125 0
4 123 -128 0
6 124 -128 0
7 124 128 0
5 130 -131 0
1 132 -136 0
7 134 -140 0
